p tw 128 352
1 17
2 18
3 19
4 20
5 21
6 22
7 23
8 24
9 25
10 26
11 27
12 28
13 29
14 30
15 31
16 32
17 33
17 34
17 35
17 36
18 41
18 57
18 59
18 60
19 61
19 64
19 65
19 66
20 59
20 65
20 70
20 72
21 48
21 54
21 70
21 71
22 51
22 61
22 62
22 63
23 46
23 50
23 51
23 52
24 40
24 43
24 44
24 45
25 47
25 64
25 67
25 69
26 33
26 37
26 38
26 39
27 34
27 40
27 41
27 42
28 46
28 47
28 48
28 49
29 35
29 44
29 57
29 58
30 37
30 43
30 53
30 56
31 50
31 53
31 54
31 55
32 38
32 62
32 67
32 68
33 34
33 35
33 36
33 37
33 38
33 39
34 35
34 36
34 40
34 41
34 42
35 36
35 44
35 57
35 58
36 73
36 74
36 75
36 76
37 38
37 39
37 43
37 53
37 56
38 39
38 62
38 67
38 68
39 73
39 77
39 78
39 79
40 41
40 42
40 43
40 44
40 45
41 42
41 57
41 59
41 60
42 74
42 80
42 81
42 82
43 44
43 45
43 53
43 56
44 45
44 57
44 58
45 80
45 83
45 84
45 85
46 47
46 48
46 49
46 50
46 51
46 52
47 48
47 49
47 64
47 67
47 69
48 49
48 54
48 70
48 71
49 86
49 87
49 88
49 89
50 51
50 52
50 53
50 54
50 55
51 52
51 61
51 62
51 63
52 86
52 90
52 91
52 92
53 54
53 55
53 56
54 55
54 70
54 71
55 90
55 93
55 94
55 95
56 77
56 83
56 93
56 96
57 58
57 59
57 60
58 75
58 84
58 97
58 98
59 60
59 65
59 70
59 72
60 81
60 97
60 99
60 100
61 62
61 63
61 64
61 65
61 66
62 63
62 67
62 68
63 91
63 101
63 102
63 103
64 65
64 66
64 67
64 69
65 66
65 70
65 72
66 101
66 104
66 105
66 106
67 68
67 69
68 78
68 102
68 107
68 108
69 87
69 104
69 107
69 109
70 71
70 72
71 88
71 94
71 110
71 111
72 99
72 105
72 110
72 112
73 74
73 75
73 76
73 77
73 78
73 79
74 75
74 76
74 80
74 81
74 82
75 76
75 84
75 97
75 98
76 128
77 78
77 79
77 83
77 93
77 96
78 79
78 102
78 107
78 108
79 119
80 81
80 82
80 83
80 84
80 85
81 82
81 97
81 99
81 100
82 118
83 84
83 85
83 93
83 96
84 85
84 97
84 98
85 121
86 87
86 88
86 89
86 90
86 91
86 92
87 88
87 89
87 104
87 107
87 109
88 89
88 94
88 110
88 111
89 117
90 91
90 92
90 93
90 94
90 95
91 92
91 101
91 102
91 103
92 122
93 94
93 95
93 96
94 95
94 110
94 111
95 114
96 115
97 98
97 99
97 100
98 116
99 100
99 105
99 110
99 112
100 127
101 102
101 103
101 104
101 105
101 106
102 103
102 107
102 108
103 123
104 105
104 106
104 107
104 109
105 106
105 110
105 112
106 126
107 108
107 109
108 113
109 120
110 111
110 112
111 124
112 125
